language ESSENCE 1.3

letting buckets be 4

letting capacity     be function(1 --> 3, 2 --> 5, 3 --> 8, 4 --> 13)
letting initialState be function(1 --> 0, 2 --> 0, 3 --> 0, 4 --> 13)
letting finalState   be function(1 --> 2, 2 --> 4, 3 --> 4, 4 --> 3)

letting HORIZON be 30
